(set-logic HORN)
(declare-fun inv ((_ BitVec 64) (_ BitVec 64) (_ BitVec 64) ) Bool)
(assert (forall ((x (_ BitVec 64)) (y (_ BitVec 64)) (z (_ BitVec 64))) 
       (=> ( = x (_ bv0 64) ) (inv x y z))))
(assert (forall ((x (_ BitVec 64)) (y (_ BitVec 64)) (z (_ BitVec 64)) (x! (_ BitVec 64)) (y! (_ BitVec 64)) (z! (_ BitVec 64))) 
       (=> (and (inv x y z) ( or ( and ( = x! ( bvadd x (_ bv1 64) ) ) ( = y! z! ) ( bvsle z! y ) ( bvslt x (_ bv5 64) ) ) ( and ( = x! ( bvadd x (_ bv1 64) ) ) ( = y! y ) ( bvsgt z! y ) ( bvslt x (_ bv5 64) ) ) )) (inv x! y! z!))))
(assert (forall ((x (_ BitVec 64)) (y (_ BitVec 64)) (z (_ BitVec 64))) 
       (=> (inv x y z) ( not ( and ( bvsge x (_ bv5 64) ) ( bvslt z y ) ) ))))
(check-sat)
